38 5 16 30 10 1 73 96 0 17 20 57 55 26 93 18 8 4 59 33 39 23 37 62 90 66 54 92 11 77 52 51 22 15 28 50 41 36 74 7 60 95 99 27 56 53 12 97 9 31 69 80 82 14 61 25 78 48 2 32 65 21 19 47 44 94 40 89 24 43 3 34 79 49 98 58 46 35 86 45 68 70 67 81 84 64 88 72 76 71 75 42 6 85 63 13 91 83 87 29 

